num_wann = 8
num_bands = 8
spinors : true
num_iter 0
shell_list 1
exclude_bands 9-16

use_bloch_phases = T

begin unit_cell_cart
     4.8097927     0.0000000     0.0000000
    -2.4048965     4.1654052     0.0000000
     0.0000000     0.0000000    17.0000000
end unit_cell_cart

begin atoms_cart
Sn       2.4048963     1.3884687     8.9494506
Pb      -0.0000001     2.7769365     8.0505494
end atoms_cart

mp_grid =     1     8     1

begin kpoints
      0.250000000000      0.000000000000      0.000000000000
      0.250000000000      0.125000000000      0.000000000000
      0.250000000000      0.250000000000      0.000000000000
      0.250000000000      0.375000000000      0.000000000000
      0.250000000000      0.500000000000      0.000000000000
      0.250000000000     -0.375000000000      0.000000000000
      0.250000000000     -0.250000000000      0.000000000000
      0.250000000000     -0.125000000000      0.000000000000
end kpoints
